NAME          BLANK   
ROWS
 N  OBJROW
 L  R0000000
COLUMNS
    C0000000  OBJROW     -786.         R0000000  412.        
    C0000001  OBJROW     -529.         R0000000  414.        
    C0000002  OBJROW     -432.         R0000000  156.        
    C0000003  OBJROW     -730.         R0000000  375.        
    C0000004  OBJROW     -865.         R0000000  82.         
    C0000005  OBJROW     -760.         R0000000  921.        
    C0000006  OBJROW     -683.         R0000000  544.        
    C0000007  OBJROW     -238.         R0000000  594.        
    C0000008  OBJROW     -236.         R0000000  792.        
    C0000009  OBJROW     -495.         R0000000  323.        
    C0000010  OBJROW     -178.         R0000000  774.        
    C0000011  OBJROW     -905.         R0000000  661.        
    C0000012  OBJROW     -58.          R0000000  46.         
    C0000013  OBJROW     -745.         R0000000  379.        
    C0000014  OBJROW     -744.         R0000000  904.        
    C0000015  OBJROW     -99.          R0000000  979.        
    C0000016  OBJROW     -688.         R0000000  334.        
    C0000017  OBJROW     -849.         R0000000  389.        
    C0000018  OBJROW     -985.         R0000000  86.         
    C0000019  OBJROW     -114.         R0000000  541.        
    C0000020  OBJROW     -239.         R0000000  878.        
    C0000021  OBJROW     -164.         R0000000  859.        
    C0000022  OBJROW     -629.         R0000000  512.        
    C0000023  OBJROW     -485.         R0000000  923.        
    C0000024  OBJROW     -118.         R0000000  512.        
    C0000025  OBJROW     -939.         R0000000  849.        
    C0000026  OBJROW     -287.         R0000000  58.         
    C0000027  OBJROW     -515.         R0000000  407.        
    C0000028  OBJROW     -744.         R0000000  868.        
    C0000029  OBJROW     -641.         R0000000  397.        
    C0000030  OBJROW     -441.         R0000000  341.        
    C0000031  OBJROW     -193.         R0000000  589.        
    C0000032  OBJROW     -673.         R0000000  229.        
    C0000033  OBJROW     -217.         R0000000  70.         
    C0000034  OBJROW     -817.         R0000000  563.        
    C0000035  OBJROW     -481.         R0000000  264.        
    C0000036  OBJROW     -458.         R0000000  297.        
    C0000037  OBJROW     -913.         R0000000  162.        
    C0000038  OBJROW     -128.         R0000000  49.         
    C0000039  OBJROW     -403.         R0000000  200.        
    C0000040  OBJROW     -8.           R0000000  291.        
    C0000041  OBJROW     -307.         R0000000  400.        
    C0000042  OBJROW     -38.          R0000000  257.        
    C0000043  OBJROW     -285.         R0000000  857.        
    C0000044  OBJROW     -740.         R0000000  602.        
    C0000045  OBJROW     -182.         R0000000  175.        
    C0000046  OBJROW     -396.         R0000000  60.         
    C0000047  OBJROW     -543.         R0000000  423.        
    C0000048  OBJROW     -692.         R0000000  620.        
    C0000049  OBJROW     -615.         R0000000  989.        
RHS
    RHS       R0000000  11703.      
BOUNDS
 BV BOUND     C0000000  1.          
 BV BOUND     C0000001  1.          
 BV BOUND     C0000002  1.          
 BV BOUND     C0000003  1.          
 BV BOUND     C0000004  1.          
 BV BOUND     C0000005  1.          
 BV BOUND     C0000006  1.          
 BV BOUND     C0000007  1.          
 BV BOUND     C0000008  1.          
 BV BOUND     C0000009  1.          
 BV BOUND     C0000010  1.          
 BV BOUND     C0000011  1.          
 BV BOUND     C0000012  1.          
 BV BOUND     C0000013  1.          
 BV BOUND     C0000014  1.          
 BV BOUND     C0000015  1.          
 BV BOUND     C0000016  1.          
 BV BOUND     C0000017  1.          
 BV BOUND     C0000018  1.          
 BV BOUND     C0000019  1.          
 BV BOUND     C0000020  1.          
 BV BOUND     C0000021  1.          
 BV BOUND     C0000022  1.          
 BV BOUND     C0000023  1.          
 BV BOUND     C0000024  1.          
 BV BOUND     C0000025  1.          
 BV BOUND     C0000026  1.          
 BV BOUND     C0000027  1.          
 BV BOUND     C0000028  1.          
 BV BOUND     C0000029  1.          
 BV BOUND     C0000030  1.          
 BV BOUND     C0000031  1.          
 BV BOUND     C0000032  1.          
 BV BOUND     C0000033  1.          
 BV BOUND     C0000034  1.          
 BV BOUND     C0000035  1.          
 BV BOUND     C0000036  1.          
 BV BOUND     C0000037  1.          
 BV BOUND     C0000038  1.          
 BV BOUND     C0000039  1.          
 BV BOUND     C0000040  1.          
 BV BOUND     C0000041  1.          
 BV BOUND     C0000042  1.          
 BV BOUND     C0000043  1.          
 BV BOUND     C0000044  1.          
 BV BOUND     C0000045  1.          
 BV BOUND     C0000046  1.          
 BV BOUND     C0000047  1.          
 BV BOUND     C0000048  1.          
 BV BOUND     C0000049  1.          
ENDATA
